%nprocshared=4
%mem=8GB
#p M062X def2TZVP opt freq

H_rad

0 2
H 0.00 0.00 0.00




