%nprocshared=4
%mem=8GB
#p opt freq M062X def2TZVP

[CH2]C(C)C

0 2
 C                 -0.73091769   -1.18793209    0.86653543
 C                 -0.05519137   -2.54405612    0.59099676
 H                 -0.75211896   -3.35596247    0.59099689
 H                  0.55985416   -2.60195493   -0.28265462
 H                  0.55985424   -2.60195547    1.46464804
 C                 -2.34966780   -1.20145192    0.78962194
 H                 -2.81872976   -0.76558354   -0.06764094
 H                 -2.69791575   -2.20540932    0.91489329
 H                 -2.59340784   -0.62821943    1.65961924
 C                 -0.06802790    0.11896951    0.39305331
 H                  0.93127710    0.01985454    0.76246600
 H                 -0.04074814    0.36183463   -0.64866275
 H                 -0.57036805    0.89779813    0.92782462



